
;this file is automatically generated: Tue Mar 02 16:20:05 CST 2021

;declarations generated

(declare-fun oclExcludes ( Int Int) Bool)
(declare-fun type_18a8f5c6_f401_4ad4_895d_8e49bfe21021_Class25 ( Int) Bool)
(declare-fun type_18a8f5c6_f401_4ad4_895d_8e49bfe21021_Class26 ( Int) Bool)
(declare-fun type_18a8f5c6_f401_4ad4_895d_8e49bfe21021_Class27 ( Int) Bool)
(declare-fun type_18a8f5c6_f401_4ad4_895d_8e49bfe21021_Class28 ( Int) Bool)
(declare-fun type_18a8f5c6_f401_4ad4_895d_8e49bfe21021_Class29 ( Int) Bool)
(declare-fun type_18a8f5c6_f401_4ad4_895d_8e49bfe21021_Class14 ( Int) Bool)
(declare-fun type_18a8f5c6_f401_4ad4_895d_8e49bfe21021_Class15 ( Int) Bool)
(declare-fun type_18a8f5c6_f401_4ad4_895d_8e49bfe21021_Class16 ( Int) Bool)
(declare-fun type_18a8f5c6_f401_4ad4_895d_8e49bfe21021_Class17 ( Int) Bool)
(declare-fun type_18a8f5c6_f401_4ad4_895d_8e49bfe21021_Class18 ( Int) Bool)
(declare-fun type_18a8f5c6_f401_4ad4_895d_8e49bfe21021_Class19 ( Int) Bool)
(declare-fun type_18a8f5c6_f401_4ad4_895d_8e49bfe21021_Class20 ( Int) Bool)
(declare-fun type_18a8f5c6_f401_4ad4_895d_8e49bfe21021_Class21 ( Int) Bool)
(declare-fun type_18a8f5c6_f401_4ad4_895d_8e49bfe21021_Class22 ( Int) Bool)
(declare-fun type_18a8f5c6_f401_4ad4_895d_8e49bfe21021_Class23 ( Int) Bool)
(declare-fun type_18a8f5c6_f401_4ad4_895d_8e49bfe21021_Class24 ( Int) Bool)
(declare-fun type_18a8f5c6_f401_4ad4_895d_8e49bfe21021_Class9 ( Int) Bool)
(declare-fun type_18a8f5c6_f401_4ad4_895d_8e49bfe21021_Class5 ( Int) Bool)
(declare-fun type_18a8f5c6_f401_4ad4_895d_8e49bfe21021_Class6 ( Int) Bool)
(declare-fun type_18a8f5c6_f401_4ad4_895d_8e49bfe21021_Class7 ( Int) Bool)
(declare-fun type_18a8f5c6_f401_4ad4_895d_8e49bfe21021_Class8 ( Int) Bool)
(declare-fun type_18a8f5c6_f401_4ad4_895d_8e49bfe21021_Class1 ( Int) Bool)
(declare-fun type_18a8f5c6_f401_4ad4_895d_8e49bfe21021_Class2 ( Int) Bool)
(declare-fun type_18a8f5c6_f401_4ad4_895d_8e49bfe21021_Class3 ( Int) Bool)
(declare-fun type_18a8f5c6_f401_4ad4_895d_8e49bfe21021_Class4 ( Int) Bool)
(declare-fun type_18a8f5c6_f401_4ad4_895d_8e49bfe21021_Class0 ( Int) Bool)
(declare-fun type_18a8f5c6_f401_4ad4_895d_8e49bfe21021_Class10 ( Int) Bool)
(declare-fun type_18a8f5c6_f401_4ad4_895d_8e49bfe21021_Class11 ( Int) Bool)
(declare-fun type_18a8f5c6_f401_4ad4_895d_8e49bfe21021_Class12 ( Int) Bool)
(declare-fun type_18a8f5c6_f401_4ad4_895d_8e49bfe21021_Class13 ( Int) Bool)
(declare-fun Cardinality ( Int) Int)
(declare-fun class7_Class7IntAttr1 ( Int) Int)
(declare-fun oclSelect ( Int Bool) Int)
(declare-fun Enum0 ( Int) Int)
(declare-fun Enum1 ( Int) Int)
(declare-fun Enum2 ( Int) Int)
(declare-fun container_ ( Int) Int)
(declare-fun oclIncludes ( Int Int) Bool)
(declare-fun obj_82f91832_6190_4f47_a588_93d07ffe92d6 ( Int) Int)
(declare-fun ObjAt ( Int Int) Int)

;formula(s) generated
(assert (forall ((p Int)) (=> ( type_18a8f5c6_f401_4ad4_895d_8e49bfe21021_Class7 p )  (and (>= ( Enum1 ( obj_82f91832_6190_4f47_a588_93d07ffe92d6 p )  )  0) (<= ( Enum1 ( obj_82f91832_6190_4f47_a588_93d07ffe92d6 p )  )  4)))))
(assert (! (forall ((v Int)) (=> ( type_18a8f5c6_f401_4ad4_895d_8e49bfe21021_Class7 v )  (or (not (= ( Enum1 ( obj_82f91832_6190_4f47_a588_93d07ffe92d6 v )  )  0) ) (or (forall ((v Int)) (=> ( type_18a8f5c6_f401_4ad4_895d_8e49bfe21021_Class7 v )  (not (= ( Enum1 ( obj_82f91832_6190_4f47_a588_93d07ffe92d6 v )  )  1) ))) (forall ((v Int)) (=> ( type_18a8f5c6_f401_4ad4_895d_8e49bfe21021_Class7 v )  (not (= ( Enum1 ( obj_82f91832_6190_4f47_a588_93d07ffe92d6 v )  )  0) ))))))):named l0))
(assert (! (or (forall ((v Int)) (=> ( type_18a8f5c6_f401_4ad4_895d_8e49bfe21021_Class7 v )  (>= ( class7_Class7IntAttr1 ( obj_82f91832_6190_4f47_a588_93d07ffe92d6 v )  )  7))) (forall ((v Int)) (=> ( type_18a8f5c6_f401_4ad4_895d_8e49bfe21021_Class7 v )  (= ( Enum1 ( obj_82f91832_6190_4f47_a588_93d07ffe92d6 v )  )  1)))):named l1))
(assert (! (exists ((o Int)) (and ( type_18a8f5c6_f401_4ad4_895d_8e49bfe21021_Class0 ( obj_82f91832_6190_4f47_a588_93d07ffe92d6 o )  )  ( type_18a8f5c6_f401_4ad4_895d_8e49bfe21021_Class25 ( obj_82f91832_6190_4f47_a588_93d07ffe92d6 o )  ) )):named c0))
(assert (! (exists ((o Int)) ( type_18a8f5c6_f401_4ad4_895d_8e49bfe21021_Class1 ( obj_82f91832_6190_4f47_a588_93d07ffe92d6 o )  ) ):named c1))
(assert (! (exists ((o Int)) ( type_18a8f5c6_f401_4ad4_895d_8e49bfe21021_Class10 ( obj_82f91832_6190_4f47_a588_93d07ffe92d6 o )  ) ):named c2))
(assert (! (exists ((o Int)) ( type_18a8f5c6_f401_4ad4_895d_8e49bfe21021_Class11 ( obj_82f91832_6190_4f47_a588_93d07ffe92d6 o )  ) ):named c3))
(assert (! (exists ((o Int)) ( type_18a8f5c6_f401_4ad4_895d_8e49bfe21021_Class12 ( obj_82f91832_6190_4f47_a588_93d07ffe92d6 o )  ) ):named c4))
(assert (! (exists ((o Int)) (and (and ( type_18a8f5c6_f401_4ad4_895d_8e49bfe21021_Class13 ( obj_82f91832_6190_4f47_a588_93d07ffe92d6 o )  )  ( type_18a8f5c6_f401_4ad4_895d_8e49bfe21021_Class25 ( obj_82f91832_6190_4f47_a588_93d07ffe92d6 o )  ) ) ( type_18a8f5c6_f401_4ad4_895d_8e49bfe21021_Class0 ( obj_82f91832_6190_4f47_a588_93d07ffe92d6 o )  ) )):named c5))
(assert (! (exists ((o Int)) (and (and ( type_18a8f5c6_f401_4ad4_895d_8e49bfe21021_Class14 ( obj_82f91832_6190_4f47_a588_93d07ffe92d6 o )  )  ( type_18a8f5c6_f401_4ad4_895d_8e49bfe21021_Class25 ( obj_82f91832_6190_4f47_a588_93d07ffe92d6 o )  ) ) ( type_18a8f5c6_f401_4ad4_895d_8e49bfe21021_Class17 ( obj_82f91832_6190_4f47_a588_93d07ffe92d6 o )  ) )):named c6))
(assert (! (exists ((o Int)) ( type_18a8f5c6_f401_4ad4_895d_8e49bfe21021_Class15 ( obj_82f91832_6190_4f47_a588_93d07ffe92d6 o )  ) ):named c7))
(assert (! (exists ((o Int)) ( type_18a8f5c6_f401_4ad4_895d_8e49bfe21021_Class16 ( obj_82f91832_6190_4f47_a588_93d07ffe92d6 o )  ) ):named c8))
(assert (! (exists ((o Int)) (and ( type_18a8f5c6_f401_4ad4_895d_8e49bfe21021_Class17 ( obj_82f91832_6190_4f47_a588_93d07ffe92d6 o )  )  ( type_18a8f5c6_f401_4ad4_895d_8e49bfe21021_Class25 ( obj_82f91832_6190_4f47_a588_93d07ffe92d6 o )  ) )):named c9))
(assert (! (exists ((o Int)) (and (and ( type_18a8f5c6_f401_4ad4_895d_8e49bfe21021_Class18 ( obj_82f91832_6190_4f47_a588_93d07ffe92d6 o )  )  ( type_18a8f5c6_f401_4ad4_895d_8e49bfe21021_Class25 ( obj_82f91832_6190_4f47_a588_93d07ffe92d6 o )  ) ) ( type_18a8f5c6_f401_4ad4_895d_8e49bfe21021_Class17 ( obj_82f91832_6190_4f47_a588_93d07ffe92d6 o )  ) )):named c10))
(assert (! (exists ((o Int)) ( type_18a8f5c6_f401_4ad4_895d_8e49bfe21021_Class19 ( obj_82f91832_6190_4f47_a588_93d07ffe92d6 o )  ) ):named c11))
(assert (! (exists ((o Int)) ( type_18a8f5c6_f401_4ad4_895d_8e49bfe21021_Class2 ( obj_82f91832_6190_4f47_a588_93d07ffe92d6 o )  ) ):named c12))
(assert (! (exists ((o Int)) ( type_18a8f5c6_f401_4ad4_895d_8e49bfe21021_Class20 ( obj_82f91832_6190_4f47_a588_93d07ffe92d6 o )  ) ):named c13))
(assert (! (exists ((o Int)) (and (and (and ( type_18a8f5c6_f401_4ad4_895d_8e49bfe21021_Class21 ( obj_82f91832_6190_4f47_a588_93d07ffe92d6 o )  )  ( type_18a8f5c6_f401_4ad4_895d_8e49bfe21021_Class25 ( obj_82f91832_6190_4f47_a588_93d07ffe92d6 o )  ) ) ( type_18a8f5c6_f401_4ad4_895d_8e49bfe21021_Class13 ( obj_82f91832_6190_4f47_a588_93d07ffe92d6 o )  ) ) ( type_18a8f5c6_f401_4ad4_895d_8e49bfe21021_Class0 ( obj_82f91832_6190_4f47_a588_93d07ffe92d6 o )  ) )):named c14))
(assert (! (exists ((o Int)) ( type_18a8f5c6_f401_4ad4_895d_8e49bfe21021_Class22 ( obj_82f91832_6190_4f47_a588_93d07ffe92d6 o )  ) ):named c15))
(assert (! (exists ((o Int)) (and (and (and (and ( type_18a8f5c6_f401_4ad4_895d_8e49bfe21021_Class23 ( obj_82f91832_6190_4f47_a588_93d07ffe92d6 o )  )  ( type_18a8f5c6_f401_4ad4_895d_8e49bfe21021_Class25 ( obj_82f91832_6190_4f47_a588_93d07ffe92d6 o )  ) ) ( type_18a8f5c6_f401_4ad4_895d_8e49bfe21021_Class13 ( obj_82f91832_6190_4f47_a588_93d07ffe92d6 o )  ) ) ( type_18a8f5c6_f401_4ad4_895d_8e49bfe21021_Class0 ( obj_82f91832_6190_4f47_a588_93d07ffe92d6 o )  ) ) ( type_18a8f5c6_f401_4ad4_895d_8e49bfe21021_Class21 ( obj_82f91832_6190_4f47_a588_93d07ffe92d6 o )  ) )):named c16))
(assert (! (exists ((o Int)) (and (and ( type_18a8f5c6_f401_4ad4_895d_8e49bfe21021_Class24 ( obj_82f91832_6190_4f47_a588_93d07ffe92d6 o )  )  ( type_18a8f5c6_f401_4ad4_895d_8e49bfe21021_Class25 ( obj_82f91832_6190_4f47_a588_93d07ffe92d6 o )  ) ) ( type_18a8f5c6_f401_4ad4_895d_8e49bfe21021_Class0 ( obj_82f91832_6190_4f47_a588_93d07ffe92d6 o )  ) )):named c17))
(assert (! (exists ((o Int)) ( type_18a8f5c6_f401_4ad4_895d_8e49bfe21021_Class25 ( obj_82f91832_6190_4f47_a588_93d07ffe92d6 o )  ) ):named c18))
(assert (! (exists ((o Int)) ( type_18a8f5c6_f401_4ad4_895d_8e49bfe21021_Class26 ( obj_82f91832_6190_4f47_a588_93d07ffe92d6 o )  ) ):named c19))
(assert (! (exists ((o Int)) (and (and ( type_18a8f5c6_f401_4ad4_895d_8e49bfe21021_Class27 ( obj_82f91832_6190_4f47_a588_93d07ffe92d6 o )  )  ( type_18a8f5c6_f401_4ad4_895d_8e49bfe21021_Class25 ( obj_82f91832_6190_4f47_a588_93d07ffe92d6 o )  ) ) ( type_18a8f5c6_f401_4ad4_895d_8e49bfe21021_Class17 ( obj_82f91832_6190_4f47_a588_93d07ffe92d6 o )  ) )):named c20))
(assert (! (exists ((o Int)) (and (and (and (and ( type_18a8f5c6_f401_4ad4_895d_8e49bfe21021_Class28 ( obj_82f91832_6190_4f47_a588_93d07ffe92d6 o )  )  ( type_18a8f5c6_f401_4ad4_895d_8e49bfe21021_Class25 ( obj_82f91832_6190_4f47_a588_93d07ffe92d6 o )  ) ) ( type_18a8f5c6_f401_4ad4_895d_8e49bfe21021_Class13 ( obj_82f91832_6190_4f47_a588_93d07ffe92d6 o )  ) ) ( type_18a8f5c6_f401_4ad4_895d_8e49bfe21021_Class0 ( obj_82f91832_6190_4f47_a588_93d07ffe92d6 o )  ) ) ( type_18a8f5c6_f401_4ad4_895d_8e49bfe21021_Class21 ( obj_82f91832_6190_4f47_a588_93d07ffe92d6 o )  ) )):named c21))
(assert (! (exists ((o Int)) ( type_18a8f5c6_f401_4ad4_895d_8e49bfe21021_Class29 ( obj_82f91832_6190_4f47_a588_93d07ffe92d6 o )  ) ):named c22))
(assert (! (exists ((o Int)) ( type_18a8f5c6_f401_4ad4_895d_8e49bfe21021_Class3 ( obj_82f91832_6190_4f47_a588_93d07ffe92d6 o )  ) ):named c23))
(assert (! (exists ((o Int)) (and (and (and (and ( type_18a8f5c6_f401_4ad4_895d_8e49bfe21021_Class4 ( obj_82f91832_6190_4f47_a588_93d07ffe92d6 o )  )  ( type_18a8f5c6_f401_4ad4_895d_8e49bfe21021_Class25 ( obj_82f91832_6190_4f47_a588_93d07ffe92d6 o )  ) ) ( type_18a8f5c6_f401_4ad4_895d_8e49bfe21021_Class24 ( obj_82f91832_6190_4f47_a588_93d07ffe92d6 o )  ) ) ( type_18a8f5c6_f401_4ad4_895d_8e49bfe21021_Class6 ( obj_82f91832_6190_4f47_a588_93d07ffe92d6 o )  ) ) ( type_18a8f5c6_f401_4ad4_895d_8e49bfe21021_Class0 ( obj_82f91832_6190_4f47_a588_93d07ffe92d6 o )  ) )):named c24))
(assert (! (exists ((o Int)) ( type_18a8f5c6_f401_4ad4_895d_8e49bfe21021_Class5 ( obj_82f91832_6190_4f47_a588_93d07ffe92d6 o )  ) ):named c25))
(assert (! (exists ((o Int)) (and (and (and ( type_18a8f5c6_f401_4ad4_895d_8e49bfe21021_Class6 ( obj_82f91832_6190_4f47_a588_93d07ffe92d6 o )  )  ( type_18a8f5c6_f401_4ad4_895d_8e49bfe21021_Class25 ( obj_82f91832_6190_4f47_a588_93d07ffe92d6 o )  ) ) ( type_18a8f5c6_f401_4ad4_895d_8e49bfe21021_Class24 ( obj_82f91832_6190_4f47_a588_93d07ffe92d6 o )  ) ) ( type_18a8f5c6_f401_4ad4_895d_8e49bfe21021_Class0 ( obj_82f91832_6190_4f47_a588_93d07ffe92d6 o )  ) )):named c26))
(assert (! (exists ((o Int)) ( type_18a8f5c6_f401_4ad4_895d_8e49bfe21021_Class7 ( obj_82f91832_6190_4f47_a588_93d07ffe92d6 o )  ) ):named c27))
(assert (! (exists ((o Int)) ( type_18a8f5c6_f401_4ad4_895d_8e49bfe21021_Class8 ( obj_82f91832_6190_4f47_a588_93d07ffe92d6 o )  ) ):named c28))
(assert (! (exists ((o Int)) ( type_18a8f5c6_f401_4ad4_895d_8e49bfe21021_Class9 ( obj_82f91832_6190_4f47_a588_93d07ffe92d6 o )  ) ):named c29))

 ;end of formula 